<instance format="XCSP3" type="CSP">
  <variables>
    <var id="x0"> 0 5 8 11 13 </var>
    <var id="x1"> 4 8 10 13 </var>
    <var id="x2"> 0 8 10 13 </var>
    <var id="x3"> 5 10 </var>
    <var id="x4"> 13 </var>
    <var id="x5"> 0 5 10 11 13 </var>
    <var id="x6"> 0 8 10 13 </var>
    <var id="x7"> 0 3 13 </var>
    <var id="x8"> 3 4 9 10 13 </var>
    <var id="x9"> 9 10 </var>
    <var id="x10"> 4 10 </var>
    <var id="x11"> 0 3 9 </var>
    <var id="x12"> 0 4 9 14 </var>
    <var id="x13"> 3 9 10 14 </var>
    <var id="x14"> 3 8 10 12 </var>
    <var id="x15"> 3 6..8 12 </var>
    <var id="x16"> 7 9 10 12 </var>
    <var id="x17"> 7 8 10 </var>
    <var id="x18"> 3 6..9 </var>
    <var id="x19"> 3 6 10 </var>
    <var id="x20"> 3 8 10 12 </var>
    <var id="x21"> 2 8 11 </var>
    <var id="x22"> 1 7 8 11 </var>
    <var id="x23"> 2 8 </var>
    <var id="x24"> 4 7 8 </var>
    <var id="x25"> 1 2 9 </var>
    <var id="x26"> 2 7..9 </var>
    <var id="x27"> 1 9 </var>
    <var id="x28"> 0 6 13 </var>
    <var id="x29"> 0 12 13 </var>
    <var id="x30"> 9 12..14 </var>
    <var id="x31"> 0 6 9 </var>
    <var id="x32"> 9 10 12 14 </var>
    <var id="x33"> 10 13 </var>
    <var id="x34"> 0 10 12 13 </var>
    <var id="x35"> 3 6 13 </var>
    <var id="x36"> 1 7 11..13 </var>
    <var id="x37"> 3 12 13 </var>
    <var id="x38"> 3 6 7 12 13 </var>
    <var id="x39"> 3 6 7 </var>
    <var id="x40"> 1 6 11 </var>
    <var id="x41"> 3 7 13 </var>
    <var id="x42"> 2 5 8 13 </var>
    <var id="x43"> 8 10 13 </var>
    <var id="x44"> 1 2 5 10 12 </var>
    <var id="x45"> 1 2 5 8 10 </var>
    <var id="x46"> 2 8 </var>
    <var id="x47"> 2 5 8 10 13 </var>
    <var id="x48"> 1 8 10 12 13 </var>
    <var id="x49"> 3 8 9 13 </var>
    <var id="x50"> 8 12 13 </var>
    <var id="x51"> 2 8 9 13 </var>
    <var id="x52"> 2 5 9 12 </var>
    <var id="x53"> 2 3 9 12 13 </var>
    <var id="x54"> 2 5 8 </var>
    <var id="x55"> 3 5 9 12 </var>
    <var id="x56"> 0 7 8 13 </var>
    <var id="x57"> 0 2 8 13 </var>
    <var id="x58"> 6..8 13 </var>
    <var id="x59"> 2 5 7 </var>
    <var id="x60"> 0 6 </var>
    <var id="x61"> 2 5 7 8 13 </var>
    <var id="x62"> 0 5 6 13 </var>
    <var id="x63"> 0 3 8 13 </var>
    <var id="x64"> 0 3 8 13 </var>
    <var id="x65"> 0 7..9 13 14 </var>
    <var id="x66"> 3 7 8 13 </var>
    <var id="x67"> 1 7 9 </var>
    <var id="x68"> 1 3 9 13 14 </var>
    <var id="x69"> 0 1 9 14 </var>
    <var id="x70"> 3 7 8 13 </var>
    <var id="x71"> 0 8 </var>
    <var id="x72"> 0 8 9 14 </var>
    <var id="x73"> 3 8 </var>
    <var id="x74"> 0 9 14 </var>
    <var id="x75"> 3 5 9 10 14 </var>
    <var id="x76"> 0 3 5 10 </var>
    <var id="x77"> 0 3 8 10 </var>
    <var id="x78"> 0 2 3 6 </var>
    <var id="x79"> 0 2 7 </var>
    <var id="x80"> 3 4 6 7 12 </var>
    <var id="x81"> 2 4 7 </var>
    <var id="x82"> 0 4 6 </var>
    <var id="x83"> 3 12 </var>
    <var id="x84"> 0 3 6 </var>
    <var id="x85"> 3 8 13 </var>
    <var id="x86"> 0 2 8 13 </var>
    <var id="x87"> 1 2 5 8 </var>
    <var id="x88"> 0 2 3 8 </var>
    <var id="x89"> 0 1 </var>
    <var id="x90"> 2 3 5 8 13 </var>
    <var id="x91"> 0 3 5 13 </var>
    <var id="x92"> 2 3 8 11 13 </var>
    <var id="x93"> 3 8 10 13 </var>
    <var id="x94"> 1 8 11 13 </var>
    <var id="x95"> 2 8 13 </var>
    <var id="x96"> 1..3 13 </var>
    <var id="x97"> 1 3 10 </var>
    <var id="x98"> 1 3 8 10 13 </var>
    <var id="x99"> 2 3 10 12 </var>
    <var id="x100"> 2 7 </var>
    <var id="x101"> 1..3 12 </var>
    <var id="x102"> 1 2 7 10 </var>
    <var id="x103"> 2 3 7 10 </var>
    <var id="x104"> 3 6 10 </var>
    <var id="x105"> 1 3 10 12 </var>
  </variables>
  <constraints>
    <group>
      <allDifferent> %... </allDifferent>
      <args> x0 x1 x2 x3 x4 x5 x6 </args>
      <args> x7 x8 x9 x10 x11 x12 x13 </args>
      <args> x14 x15 x16 x17 x18 x19 x20 </args>
      <args> x21 x22 x23 x24 x25 x26 x27 </args>
      <args> x28 x29 x30 x31 x32 x33 x34 </args>
      <args> x35 x36 x37 x38 x39 x40 x41 </args>
      <args> x42 x43 x44 x45 x46 x47 x48 </args>
      <args> x49 x50 x51 x52 x53 x54 x55 </args>
      <args> x56 x57 x58 x59 x60 x61 x62 </args>
      <args> x63 x64 x65 x66 x67 x68 x69 x70 </args>
      <args> x71 x72 x73 x74 x75 x76 x77 </args>
      <args> x78 x79 x80 x81 x82 x83 x84 </args>
      <args> x85 x86 x87 x88 x89 x90 x91 </args>
      <args> x92 x93 x94 x95 x96 x97 x98 </args>
      <args> x99 x100 x101 x102 x103 x104 x105 </args>
      <args> x0 x7 x21 x28 x42 x63 x78 x92 </args>
      <args> x1 x8 x35 x43 x49 x85 x93 </args>
      <args> x22 x29 x36 x50 x56 x71 x94 </args>
      <args> x2 x14 x23 x37 x57 x64 x99 </args>
      <args> x51 x65 x72 x79 x86 x95 x100 </args>
      <args> x15 x24 x38 x58 x66 x73 x80 </args>
      <args> x3 x9 x16 x44 x52 x59 x67 </args>
      <args> x4 x25 x30 x53 x68 x96 x101 </args>
      <args> x10 x17 x45 x54 x81 x87 x102 </args>
      <args> x11 x18 x26 x31 x39 x46 x88 </args>
      <args> x12 x40 x60 x69 x74 x82 x89 </args>
      <args> x13 x27 x32 x55 x75 x83 x97 </args>
      <args> x33 x41 x47 x61 x70 x90 x103 </args>
      <args> x5 x19 x62 x76 x84 x91 x104 </args>
      <args> x6 x20 x34 x48 x77 x98 x105 </args>
    </group>
  </constraints>
</instance>

